instances/knapsack/discrete/knapsack_150_14.lp
\ Model knapsack_150_14
\ LP format - for model browsing. Use MPS format to capture full model detail.
\ Signature: 0x1d3d114bfbe69093
Minimize
  - 42 x[0] - 91 x[1] - 56 x[2] - 84 x[3] - 54 x[4] - 73 x[5] - 82 x[6]
   - 48 x[7] - 91 x[8] - 75 x[9] - 83 x[10] - 67 x[11] - 7 x[12] - 82 x[13]
   - 43 x[14] - 60 x[15] - 82 x[16] - 86 x[17] - 43 x[18] - 78 x[19]
   - 46 x[20] - 71 x[21] - 92 x[22] - 100 x[23] - 41 x[24] - 67 x[25]
   - 56 x[26] - 96 x[27] - 66 x[28] - 13 x[29] - 81 x[30] - 72 x[31]
   - 16 x[32] - 83 x[33] - 32 x[34] - 33 x[35] - 37 x[36] - 75 x[37]
   - 51 x[38] - 68 x[39] - 40 x[40] - 10 x[41] - 46 x[42] - 39 x[43]
   - 27 x[44] - 63 x[45] - 73 x[46] - 65 x[47] - 77 x[48] - 38 x[49]
   - 55 x[50] - 7 x[51] - 23 x[52] - 69 x[53] - 100 x[54] - 90 x[55]
   - 59 x[56] - 96 x[57] - 20 x[58] - 7 x[59] - 32 x[60] - 90 x[61]
   - 30 x[62] - 74 x[63] - 35 x[64] - x[65] - 81 x[66] - 18 x[67] - 5 x[68]
   - 14 x[69] - 21 x[70] - 99 x[71] - 57 x[72] - 22 x[73] - 63 x[74]
   - 2 x[75] - 94 x[76] - 97 x[77] - 88 x[78] - 72 x[79] - 23 x[80]
   - 98 x[81] - 62 x[82] - 14 x[83] - 25 x[84] - 93 x[85] - 78 x[86]
   - 75 x[87] - 24 x[88] - 83 x[89] - 66 x[90] - 38 x[91] - 94 x[92]
   - 25 x[93] - 28 x[94] - 63 x[95] - 49 x[96] - 44 x[97] - 93 x[98]
   - 13 x[99] - 13 x[100] - 10 x[101] - 91 x[102] - 2 x[103] - 35 x[104]
   - 35 x[105] - 46 x[106] - 41 x[107] - 54 x[108] - 97 x[109] - 58 x[110]
   - 10 x[111] - 14 x[112] - 16 x[113] - 14 x[114] - 25 x[115] - 19 x[116]
   - 9 x[117] - 82 x[118] - 39 x[119] - 58 x[120] - 95 x[121] - 78 x[122]
   - 59 x[123] - 40 x[124] - 29 x[125] - 61 x[126] - 38 x[127] - 80 x[128]
   - 49 x[129] - 35 x[130] - 91 x[131] - 40 x[132] - 55 x[133] - 14 x[134]
   - 32 x[135] - 77 x[136] - 54 x[137] - 83 x[138] - 34 x[139] - 98 x[140]
   - 49 x[141] - 10 x[142] - 72 x[143] - 12 x[144] - 3 x[145] - 93 x[146]
   - 95 x[147] - 81 x[148] - 95 x[149]
Subject To
 primal_upper: 84 x[0] + 92 x[1] + 54 x[2] + 7 x[3] + 32 x[4] + 14 x[5]
   + 73 x[6] + 80 x[7] + 37 x[8] + 94 x[9] + 72 x[10] + 11 x[11] + 12 x[12]
   + 16 x[13] + 41 x[14] + 93 x[15] + 73 x[16] + 44 x[17] + 49 x[18]
   + 62 x[19] + 57 x[20] + 68 x[21] + 100 x[22] + 39 x[23] + 41 x[24]
   + 92 x[25] + 90 x[26] + 16 x[27] + 82 x[28] + 55 x[29] + 62 x[30]
   + 36 x[31] + 4 x[32] + 45 x[33] + 92 x[34] + 17 x[35] + 76 x[36]
   + 5 x[37] + 60 x[38] + 35 x[39] + 11 x[40] + 30 x[41] + 38 x[42]
   + 94 x[43] + 23 x[44] + 7 x[45] + 46 x[46] + 58 x[47] + 15 x[48]
   + 68 x[49] + 19 x[50] + 76 x[51] + 49 x[52] + 16 x[53] + 61 x[54]
   + 32 x[55] + 5 x[56] + 31 x[57] + 28 x[58] + 94 x[59] + 37 x[60]
   + 7 x[61] + 36 x[62] + 51 x[63] + 60 x[64] + 92 x[65] + 21 x[66]
   + 91 x[67] + 92 x[68] + 10 x[69] + 22 x[70] + 70 x[71] + 14 x[72]
   + 43 x[73] + 8 x[74] + 9 x[75] + 95 x[76] + 19 x[77] + 17 x[78]
   + 23 x[79] + 50 x[80] + 70 x[81] + 35 x[82] + 38 x[83] + 66 x[84]
   + 34 x[85] + 88 x[86] + 56 x[87] + 86 x[88] + 43 x[89] + 37 x[90]
   + 89 x[91] + 33 x[92] + 60 x[93] + 60 x[94] + 9 x[95] + 89 x[96]
   + 81 x[97] + 92 x[98] + 64 x[99] + 45 x[100] + 36 x[101] + 42 x[102]
   + 96 x[103] + 65 x[104] + 38 x[105] + 51 x[106] + 31 x[107] + 47 x[108]
   + 9 x[109] + 91 x[110] + 99 x[111] + 29 x[112] + 69 x[113] + 17 x[114]
   + 31 x[115] + 19 x[116] + 49 x[117] + 41 x[118] + 89 x[119] + 60 x[120]
   + 25 x[121] + 72 x[122] + 71 x[123] + 65 x[124] + 79 x[125] + 16 x[126]
   + 88 x[127] + 15 x[128] + 27 x[129] + 10 x[130] + 77 x[131] + 15 x[132]
   + 24 x[133] + x[134] + 62 x[135] + x[136] + 99 x[137] + 22 x[138]
   + 52 x[139] + 95 x[140] + 89 x[141] + 55 x[142] + 31 x[143] + 85 x[144]
   + 58 x[145] + 82 x[146] + 51 x[147] + 93 x[148] + 90 x[149] + 8.4 r[0]
   + 9.2 r[1] + 5.4 r[2] + 0.7 r[3] + 3.2 r[4] + 1.4 r[5] + 7.3 r[6]
   + 8 r[7] + 3.7 r[8] + 9.4 r[9] + 7.2 r[10] + 1.1 r[11] + 1.2 r[12]
   + 1.6 r[13] + 4.1 r[14] + 9.3 r[15] + 7.3 r[16] + 4.4 r[17] + 4.9 r[18]
   + 6.2 r[19] + 5.7 r[20] + 6.8 r[21] + 10 r[22] + 3.9 r[23] + 4.1 r[24]
   + 9.2 r[25] + 9 r[26] + 1.6 r[27] + 8.2 r[28] + 5.5 r[29] + 6.2 r[30]
   + 3.6 r[31] + 0.4 r[32] + 4.5 r[33] + 9.2 r[34] + 1.7 r[35] + 7.6 r[36]
   + 0.5 r[37] + 6 r[38] + 3.5 r[39] + 1.1 r[40] + 3 r[41] + 3.8 r[42]
   + 9.4 r[43] + 2.3 r[44] + 0.7 r[45] + 4.6 r[46] + 5.8 r[47] + 1.5 r[48]
   + 6.8 r[49] + 1.9 r[50] + 7.6 r[51] + 4.9 r[52] + 1.6 r[53] + 6.1 r[54]
   + 3.2 r[55] + 0.5 r[56] + 3.1 r[57] + 2.8 r[58] + 9.4 r[59] + 3.7 r[60]
   + 0.7 r[61] + 3.6 r[62] + 5.1 r[63] + 6 r[64] + 9.2 r[65] + 2.1 r[66]
   + 9.1 r[67] + 9.2 r[68] + r[69] + 2.2 r[70] + 7 r[71] + 1.4 r[72]
   + 4.3 r[73] + 0.8 r[74] + 0.9 r[75] + 9.5 r[76] + 1.9 r[77] + 1.7 r[78]
   + 2.3 r[79] + 5 r[80] + 7 r[81] + 3.5 r[82] + 3.8 r[83] + 6.6 r[84]
   + 3.4 r[85] + 8.8 r[86] + 5.6 r[87] + 8.6 r[88] + 4.3 r[89] + 3.7 r[90]
   + 8.9 r[91] + 3.3 r[92] + 6 r[93] + 6 r[94] + 0.9 r[95] + 8.9 r[96]
   + 8.1 r[97] + 9.2 r[98] + 6.4 r[99] + 4.5 r[100] + 3.6 r[101]
   + 4.2 r[102] + 9.6 r[103] + 6.5 r[104] + 3.8 r[105] + 5.1 r[106]
   + 3.1 r[107] + 4.7 r[108] + 0.9 r[109] + 9.1 r[110] + 9.9 r[111]
   + 2.9 r[112] + 6.9 r[113] + 1.7 r[114] + 3.1 r[115] + 1.9 r[116]
   + 4.9 r[117] + 4.1 r[118] + 8.9 r[119] + 6 r[120] + 2.5 r[121]
   + 7.2 r[122] + 7.1 r[123] + 6.5 r[124] + 7.9 r[125] + 1.6 r[126]
   + 8.8 r[127] + 1.5 r[128] + 2.7 r[129] + r[130] + 7.7 r[131]
   + 1.5 r[132] + 2.4 r[133] + 0.1 r[134] + 6.2 r[135] + 0.1 r[136]
   + 9.9 r[137] + 2.2 r[138] + 5.2 r[139] + 9.5 r[140] + 8.9 r[141]
   + 5.5 r[142] + 3.1 r[143] + 8.5 r[144] + 5.8 r[145] + 8.2 r[146]
   + 5.1 r[147] + 9.3 r[148] + 9 r[149] <= 715
 primal_lower: 0.4384462623473848 x[0] + 4.76310495508368 x[1]
   + 0.9423226323970211 x[2] + 1.048486451831366 x[3]
   + 1.096286274129004 x[4] + 2.903562021400137 x[5]
   + 1.045194742332612 x[6] + 0.2624425241583803 x[7]
   + 0.3623262075794386 x[8] + 4.504570907900985 x[9]
   + 4.101152949427287 x[10] + 3.552423188885951 x[11]
   + 4.850601705283467 x[12] + 2.051624851963175 x[13]
   + 1.474883760627353 x[14] + 2.933500795262941 x[15]
   + 0.6101675274542162 x[16] + 1.19142782216043 x[17]
   + 4.859441835505407 x[18] + 3.366272684721513 x[19]
   + 4.563096548124562 x[20] + 4.529327507344934 x[21]
   + 3.797738765488786 x[22] + 0.2956848985560399 x[23]
   + 1.416571444992707 x[24] + 1.042780682153674 x[25]
   + 0.5327137504222261 x[26] + 0.7600817576038307 x[27]
   + 3.491280418983792 x[28] + 2.896762402364712 x[29]
   + 3.022082849361109 x[30] + 2.723085439896987 x[31]
   + 2.988695521034205 x[32] + 1.69573449986849 x[33]
   + 0.8031701536307672 x[34] + 0.8712825476394441 x[35]
   + 2.585841020414824 x[36] + 1.248179047057867 x[37]
   + 2.670901787038708 x[38] + 1.155167605755606 x[39]
   + 3.360765260787759 x[40] + 1.696273433585913 x[41]
   + 3.249322991313364 x[42] + 4.173266608054459 x[43]
   + 1.99664488812253 x[44] + 1.545748809904201 x[45]
   + 2.514796747167728 x[46] + 3.924938734183056 x[47]
   + 0.7755851910311867 x[48] + 0.4547446970228798 x[49]
   + 2.256251163923423 x[50] + 3.57279390841288 x[51]
   + 4.819588852949943 x[52] + 2.424377850423042 x[53]
   + 4.34807655842772 x[54] + 2.867107294742759 x[55]
   + 3.400744935354384 x[56] + 1.235360905782866 x[57]
   + 3.506963912885741 x[58] + 1.540776498878287 x[59]
   + 2.575210225321261 x[60] + 3.198570308721926 x[61]
   + 0.6506035320767425 x[62] + 4.085749599918475 x[63]
   + 0.3255495828139212 x[64] + 1.903130327754446 x[65]
   + 3.481548547464968 x[66] + 4.414477924940156 x[67]
   + 0.1352327662916131 x[68] + 3.013210255429349 x[69]
   + 1.243451905437166 x[70] + 4.165058769508853 x[71]
   + 1.439886735839439 x[72] + 3.155614656850667 x[73]
   + 3.953595195563404 x[74] + 4.266926756148684 x[75]
   + 3.280217397594186 x[76] + 1.2797511586555 x[77]
   + 2.644495947149464 x[78] + 4.610325689088019 x[79]
   + 0.8248921221922615 x[80] + 2.753544872477832 x[81]
   + 4.789599949323765 x[82] + 0.3637627195242498 x[83]
   + 3.358196620395855 x[84] + 0.6801845894556204 x[85]
   + 3.44140081092597 x[86] + 1.801607484544737 x[87]
   + 1.967393699689383 x[88] + 2.419319423343123 x[89]
   + 4.338198711111391 x[90] + 0.4993567204209163 x[91]
   + 4.191483339740269 x[92] + 4.081120780533336 x[93]
   + 1.241281253478601 x[94] + 3.896970125787708 x[95]
   + 3.12113213362001 x[96] + 2.979335469571889 x[97]
   + 3.88497018088057 x[98] + 0.4375028908953192 x[99]
   + 2.734457778668422 x[100] + 3.552503596011226 x[101]
   + 0.9350231395053946 x[102] + 3.209299319218623 x[103]
   + 4.064025620781011 x[104] + 2.254031544366829 x[105]
   + 2.241404124570646 x[106] + 4.848021229621657 x[107]
   + 4.097154615791552 x[108] + 0.1474192117997266 x[109]
   + 2.631503474917627 x[110] + 3.257805862518434 x[111]
   + 0.1195683463287589 x[112] + 0.0263488221097689 x[113]
   + 3.972634642369655 x[114] + 0.9588665089715739 x[115]
   + 3.789498198914351 x[116] + 1.342507517595798 x[117]
   + 1.359022973147184 x[118] + 3.987214680401898 x[119]
   + 3.89805622287619 x[120] + 3.149243833809007 x[121]
   + 2.763007864914993 x[122] + 2.352211970623125 x[123]
   + 0.8901492890322683 x[124] + 0.0295703550208364 x[125]
   + 0.9560209912639903 x[126] + 0.8419139940741497 x[127]
   + 2.43429002806666 x[128] + 2.535352564429307 x[129]
   + 4.13744829317088 x[130] + 4.428095168720361 x[131]
   + 1.887364174185548 x[132] + 1.015798398849919 x[133]
   + 3.602031016836856 x[134] + 0.2531932027307331 x[135]
   + 0.1461318334742963 x[136] + 4.654953319122903 x[137]
   + 1.844102797456647 x[138] + 2.245881367551347 x[139]
   + 1.748779776951142 x[140] + 4.832284808573917 x[141]
   + 1.57666474102878 x[142] + 1.667529840012493 x[143]
   + 1.948486327401222 x[144] + 0.407020853908637 x[145]
   + 4.279937676420627 x[146] + 2.653483429529649 x[147]
   + 2.573842802645292 x[148] + 3.747497722380752 x[149] + 52 u[0]
   + 37 u[1] + 59 u[2] + 36 u[3] + 61 u[4] + 78 u[5] + 90 u[6] + 100 u[7]
   + 50 u[8] + 19 u[9] + 76 u[10] + 4 u[11] + 21 u[12] + 9 u[13] + 25 u[14]
   + 97 u[15] + 78 u[16] + 49 u[17] + 98 u[18] + 87 u[19] + 18 u[20]
   + 56 u[21] + 49 u[22] + 63 u[23] + 77 u[24] + 97 u[25] + 99 u[26]
   + 88 u[27] + 82 u[28] + 52 u[29] + 46 u[30] + 24 u[31] + 20 u[32]
   + 74 u[33] + 21 u[34] + 98 u[35] + 53 u[36] + 61 u[37] + 61 u[38]
   + 83 u[39] + 28 u[40] + 38 u[41] + 3 u[42] + 2 u[43] + 92 u[44]
   + 39 u[45] + 98 u[46] + 34 u[47] + 60 u[48] + u[49] + 91 u[50] + 9 u[51]
   + 74 u[52] + u[53] + 97 u[54] + 12 u[55] + 66 u[56] + 59 u[57]
   + 13 u[58] + 11 u[59] + 25 u[60] + 39 u[61] + 8 u[62] + 95 u[63]
   + 72 u[64] + 41 u[65] + 97 u[66] + 51 u[67] + 81 u[68] + 58 u[69]
   + 38 u[70] + 66 u[71] + 51 u[72] + 40 u[73] + 40 u[74] + 25 u[75]
   + 7 u[76] + 96 u[77] + 57 u[78] + 15 u[79] + 58 u[80] + 26 u[81]
   + 11 u[82] + 82 u[83] + 14 u[84] + 50 u[85] + 20 u[86] + 9 u[87]
   + 35 u[88] + 92 u[89] + 57 u[90] + 65 u[91] + 77 u[92] + 4 u[93]
   + 89 u[94] + 54 u[95] + 90 u[96] + 45 u[97] + 57 u[98] + 13 u[99]
   + 70 u[100] + 53 u[101] + 27 u[102] + 41 u[103] + 66 u[104] + 3 u[105]
   + 64 u[106] + 31 u[107] + 63 u[108] + 70 u[109] + 67 u[110] + 100 u[111]
   + 58 u[112] + 30 u[113] + 6 u[114] + 87 u[115] + 100 u[116] + 26 u[117]
   + 94 u[118] + 13 u[119] + 48 u[120] + 61 u[121] + 68 u[122] + 3 u[123]
   + 74 u[124] + 59 u[125] + 60 u[126] + 100 u[127] + 27 u[128] + 20 u[129]
   + 34 u[130] + 38 u[131] + 71 u[132] + u[133] + 97 u[134] + 83 u[135]
   + 30 u[136] + 71 u[137] + 26 u[138] + u[139] + 60 u[140] + 5 u[141]
   + 84 u[142] + 20 u[143] + 10 u[144] + 55 u[145] + 63 u[146] + 76 u[147]
   + 53 u[148] + 87 u[149] <= 58167
 mccormick1[0]: - u[0] + r[0] <= 0
 mccormick1[1]: - u[1] + r[1] <= 0
 mccormick1[2]: - u[2] + r[2] <= 0
 mccormick1[3]: - u[3] + r[3] <= 0
 mccormick1[4]: - u[4] + r[4] <= 0
 mccormick1[5]: - u[5] + r[5] <= 0
 mccormick1[6]: - u[6] + r[6] <= 0
 mccormick1[7]: - u[7] + r[7] <= 0
 mccormick1[8]: - u[8] + r[8] <= 0
 mccormick1[9]: - u[9] + r[9] <= 0
 mccormick1[10]: - u[10] + r[10] <= 0
 mccormick1[11]: - u[11] + r[11] <= 0
 mccormick1[12]: - u[12] + r[12] <= 0
 mccormick1[13]: - u[13] + r[13] <= 0
 mccormick1[14]: - u[14] + r[14] <= 0
 mccormick1[15]: - u[15] + r[15] <= 0
 mccormick1[16]: - u[16] + r[16] <= 0
 mccormick1[17]: - u[17] + r[17] <= 0
 mccormick1[18]: - u[18] + r[18] <= 0
 mccormick1[19]: - u[19] + r[19] <= 0
 mccormick1[20]: - u[20] + r[20] <= 0
 mccormick1[21]: - u[21] + r[21] <= 0
 mccormick1[22]: - u[22] + r[22] <= 0
 mccormick1[23]: - u[23] + r[23] <= 0
 mccormick1[24]: - u[24] + r[24] <= 0
 mccormick1[25]: - u[25] + r[25] <= 0
 mccormick1[26]: - u[26] + r[26] <= 0
 mccormick1[27]: - u[27] + r[27] <= 0
 mccormick1[28]: - u[28] + r[28] <= 0
 mccormick1[29]: - u[29] + r[29] <= 0
 mccormick1[30]: - u[30] + r[30] <= 0
 mccormick1[31]: - u[31] + r[31] <= 0
 mccormick1[32]: - u[32] + r[32] <= 0
 mccormick1[33]: - u[33] + r[33] <= 0
 mccormick1[34]: - u[34] + r[34] <= 0
 mccormick1[35]: - u[35] + r[35] <= 0
 mccormick1[36]: - u[36] + r[36] <= 0
 mccormick1[37]: - u[37] + r[37] <= 0
 mccormick1[38]: - u[38] + r[38] <= 0
 mccormick1[39]: - u[39] + r[39] <= 0
 mccormick1[40]: - u[40] + r[40] <= 0
 mccormick1[41]: - u[41] + r[41] <= 0
 mccormick1[42]: - u[42] + r[42] <= 0
 mccormick1[43]: - u[43] + r[43] <= 0
 mccormick1[44]: - u[44] + r[44] <= 0
 mccormick1[45]: - u[45] + r[45] <= 0
 mccormick1[46]: - u[46] + r[46] <= 0
 mccormick1[47]: - u[47] + r[47] <= 0
 mccormick1[48]: - u[48] + r[48] <= 0
 mccormick1[49]: - u[49] + r[49] <= 0
 mccormick1[50]: - u[50] + r[50] <= 0
 mccormick1[51]: - u[51] + r[51] <= 0
 mccormick1[52]: - u[52] + r[52] <= 0
 mccormick1[53]: - u[53] + r[53] <= 0
 mccormick1[54]: - u[54] + r[54] <= 0
 mccormick1[55]: - u[55] + r[55] <= 0
 mccormick1[56]: - u[56] + r[56] <= 0
 mccormick1[57]: - u[57] + r[57] <= 0
 mccormick1[58]: - u[58] + r[58] <= 0
 mccormick1[59]: - u[59] + r[59] <= 0
 mccormick1[60]: - u[60] + r[60] <= 0
 mccormick1[61]: - u[61] + r[61] <= 0
 mccormick1[62]: - u[62] + r[62] <= 0
 mccormick1[63]: - u[63] + r[63] <= 0
 mccormick1[64]: - u[64] + r[64] <= 0
 mccormick1[65]: - u[65] + r[65] <= 0
 mccormick1[66]: - u[66] + r[66] <= 0
 mccormick1[67]: - u[67] + r[67] <= 0
 mccormick1[68]: - u[68] + r[68] <= 0
 mccormick1[69]: - u[69] + r[69] <= 0
 mccormick1[70]: - u[70] + r[70] <= 0
 mccormick1[71]: - u[71] + r[71] <= 0
 mccormick1[72]: - u[72] + r[72] <= 0
 mccormick1[73]: - u[73] + r[73] <= 0
 mccormick1[74]: - u[74] + r[74] <= 0
 mccormick1[75]: - u[75] + r[75] <= 0
 mccormick1[76]: - u[76] + r[76] <= 0
 mccormick1[77]: - u[77] + r[77] <= 0
 mccormick1[78]: - u[78] + r[78] <= 0
 mccormick1[79]: - u[79] + r[79] <= 0
 mccormick1[80]: - u[80] + r[80] <= 0
 mccormick1[81]: - u[81] + r[81] <= 0
 mccormick1[82]: - u[82] + r[82] <= 0
 mccormick1[83]: - u[83] + r[83] <= 0
 mccormick1[84]: - u[84] + r[84] <= 0
 mccormick1[85]: - u[85] + r[85] <= 0
 mccormick1[86]: - u[86] + r[86] <= 0
 mccormick1[87]: - u[87] + r[87] <= 0
 mccormick1[88]: - u[88] + r[88] <= 0
 mccormick1[89]: - u[89] + r[89] <= 0
 mccormick1[90]: - u[90] + r[90] <= 0
 mccormick1[91]: - u[91] + r[91] <= 0
 mccormick1[92]: - u[92] + r[92] <= 0
 mccormick1[93]: - u[93] + r[93] <= 0
 mccormick1[94]: - u[94] + r[94] <= 0
 mccormick1[95]: - u[95] + r[95] <= 0
 mccormick1[96]: - u[96] + r[96] <= 0
 mccormick1[97]: - u[97] + r[97] <= 0
 mccormick1[98]: - u[98] + r[98] <= 0
 mccormick1[99]: - u[99] + r[99] <= 0
 mccormick1[100]: - u[100] + r[100] <= 0
 mccormick1[101]: - u[101] + r[101] <= 0
 mccormick1[102]: - u[102] + r[102] <= 0
 mccormick1[103]: - u[103] + r[103] <= 0
 mccormick1[104]: - u[104] + r[104] <= 0
 mccormick1[105]: - u[105] + r[105] <= 0
 mccormick1[106]: - u[106] + r[106] <= 0
 mccormick1[107]: - u[107] + r[107] <= 0
 mccormick1[108]: - u[108] + r[108] <= 0
 mccormick1[109]: - u[109] + r[109] <= 0
 mccormick1[110]: - u[110] + r[110] <= 0
 mccormick1[111]: - u[111] + r[111] <= 0
 mccormick1[112]: - u[112] + r[112] <= 0
 mccormick1[113]: - u[113] + r[113] <= 0
 mccormick1[114]: - u[114] + r[114] <= 0
 mccormick1[115]: - u[115] + r[115] <= 0
 mccormick1[116]: - u[116] + r[116] <= 0
 mccormick1[117]: - u[117] + r[117] <= 0
 mccormick1[118]: - u[118] + r[118] <= 0
 mccormick1[119]: - u[119] + r[119] <= 0
 mccormick1[120]: - u[120] + r[120] <= 0
 mccormick1[121]: - u[121] + r[121] <= 0
 mccormick1[122]: - u[122] + r[122] <= 0
 mccormick1[123]: - u[123] + r[123] <= 0
 mccormick1[124]: - u[124] + r[124] <= 0
 mccormick1[125]: - u[125] + r[125] <= 0
 mccormick1[126]: - u[126] + r[126] <= 0
 mccormick1[127]: - u[127] + r[127] <= 0
 mccormick1[128]: - u[128] + r[128] <= 0
 mccormick1[129]: - u[129] + r[129] <= 0
 mccormick1[130]: - u[130] + r[130] <= 0
 mccormick1[131]: - u[131] + r[131] <= 0
 mccormick1[132]: - u[132] + r[132] <= 0
 mccormick1[133]: - u[133] + r[133] <= 0
 mccormick1[134]: - u[134] + r[134] <= 0
 mccormick1[135]: - u[135] + r[135] <= 0
 mccormick1[136]: - u[136] + r[136] <= 0
 mccormick1[137]: - u[137] + r[137] <= 0
 mccormick1[138]: - u[138] + r[138] <= 0
 mccormick1[139]: - u[139] + r[139] <= 0
 mccormick1[140]: - u[140] + r[140] <= 0
 mccormick1[141]: - u[141] + r[141] <= 0
 mccormick1[142]: - u[142] + r[142] <= 0
 mccormick1[143]: - u[143] + r[143] <= 0
 mccormick1[144]: - u[144] + r[144] <= 0
 mccormick1[145]: - u[145] + r[145] <= 0
 mccormick1[146]: - u[146] + r[146] <= 0
 mccormick1[147]: - u[147] + r[147] <= 0
 mccormick1[148]: - u[148] + r[148] <= 0
 mccormick1[149]: - u[149] + r[149] <= 0
 mccormick2[0]: - x[0] + r[0] <= 0
 mccormick2[1]: - x[1] + r[1] <= 0
 mccormick2[2]: - x[2] + r[2] <= 0
 mccormick2[3]: - x[3] + r[3] <= 0
 mccormick2[4]: - x[4] + r[4] <= 0
 mccormick2[5]: - x[5] + r[5] <= 0
 mccormick2[6]: - x[6] + r[6] <= 0
 mccormick2[7]: - x[7] + r[7] <= 0
 mccormick2[8]: - x[8] + r[8] <= 0
 mccormick2[9]: - x[9] + r[9] <= 0
 mccormick2[10]: - x[10] + r[10] <= 0
 mccormick2[11]: - x[11] + r[11] <= 0
 mccormick2[12]: - x[12] + r[12] <= 0
 mccormick2[13]: - x[13] + r[13] <= 0
 mccormick2[14]: - x[14] + r[14] <= 0
 mccormick2[15]: - x[15] + r[15] <= 0
 mccormick2[16]: - x[16] + r[16] <= 0
 mccormick2[17]: - x[17] + r[17] <= 0
 mccormick2[18]: - x[18] + r[18] <= 0
 mccormick2[19]: - x[19] + r[19] <= 0
 mccormick2[20]: - x[20] + r[20] <= 0
 mccormick2[21]: - x[21] + r[21] <= 0
 mccormick2[22]: - x[22] + r[22] <= 0
 mccormick2[23]: - x[23] + r[23] <= 0
 mccormick2[24]: - x[24] + r[24] <= 0
 mccormick2[25]: - x[25] + r[25] <= 0
 mccormick2[26]: - x[26] + r[26] <= 0
 mccormick2[27]: - x[27] + r[27] <= 0
 mccormick2[28]: - x[28] + r[28] <= 0
 mccormick2[29]: - x[29] + r[29] <= 0
 mccormick2[30]: - x[30] + r[30] <= 0
 mccormick2[31]: - x[31] + r[31] <= 0
 mccormick2[32]: - x[32] + r[32] <= 0
 mccormick2[33]: - x[33] + r[33] <= 0
 mccormick2[34]: - x[34] + r[34] <= 0
 mccormick2[35]: - x[35] + r[35] <= 0
 mccormick2[36]: - x[36] + r[36] <= 0
 mccormick2[37]: - x[37] + r[37] <= 0
 mccormick2[38]: - x[38] + r[38] <= 0
 mccormick2[39]: - x[39] + r[39] <= 0
 mccormick2[40]: - x[40] + r[40] <= 0
 mccormick2[41]: - x[41] + r[41] <= 0
 mccormick2[42]: - x[42] + r[42] <= 0
 mccormick2[43]: - x[43] + r[43] <= 0
 mccormick2[44]: - x[44] + r[44] <= 0
 mccormick2[45]: - x[45] + r[45] <= 0
 mccormick2[46]: - x[46] + r[46] <= 0
 mccormick2[47]: - x[47] + r[47] <= 0
 mccormick2[48]: - x[48] + r[48] <= 0
 mccormick2[49]: - x[49] + r[49] <= 0
 mccormick2[50]: - x[50] + r[50] <= 0
 mccormick2[51]: - x[51] + r[51] <= 0
 mccormick2[52]: - x[52] + r[52] <= 0
 mccormick2[53]: - x[53] + r[53] <= 0
 mccormick2[54]: - x[54] + r[54] <= 0
 mccormick2[55]: - x[55] + r[55] <= 0
 mccormick2[56]: - x[56] + r[56] <= 0
 mccormick2[57]: - x[57] + r[57] <= 0
 mccormick2[58]: - x[58] + r[58] <= 0
 mccormick2[59]: - x[59] + r[59] <= 0
 mccormick2[60]: - x[60] + r[60] <= 0
 mccormick2[61]: - x[61] + r[61] <= 0
 mccormick2[62]: - x[62] + r[62] <= 0
 mccormick2[63]: - x[63] + r[63] <= 0
 mccormick2[64]: - x[64] + r[64] <= 0
 mccormick2[65]: - x[65] + r[65] <= 0
 mccormick2[66]: - x[66] + r[66] <= 0
 mccormick2[67]: - x[67] + r[67] <= 0
 mccormick2[68]: - x[68] + r[68] <= 0
 mccormick2[69]: - x[69] + r[69] <= 0
 mccormick2[70]: - x[70] + r[70] <= 0
 mccormick2[71]: - x[71] + r[71] <= 0
 mccormick2[72]: - x[72] + r[72] <= 0
 mccormick2[73]: - x[73] + r[73] <= 0
 mccormick2[74]: - x[74] + r[74] <= 0
 mccormick2[75]: - x[75] + r[75] <= 0
 mccormick2[76]: - x[76] + r[76] <= 0
 mccormick2[77]: - x[77] + r[77] <= 0
 mccormick2[78]: - x[78] + r[78] <= 0
 mccormick2[79]: - x[79] + r[79] <= 0
 mccormick2[80]: - x[80] + r[80] <= 0
 mccormick2[81]: - x[81] + r[81] <= 0
 mccormick2[82]: - x[82] + r[82] <= 0
 mccormick2[83]: - x[83] + r[83] <= 0
 mccormick2[84]: - x[84] + r[84] <= 0
 mccormick2[85]: - x[85] + r[85] <= 0
 mccormick2[86]: - x[86] + r[86] <= 0
 mccormick2[87]: - x[87] + r[87] <= 0
 mccormick2[88]: - x[88] + r[88] <= 0
 mccormick2[89]: - x[89] + r[89] <= 0
 mccormick2[90]: - x[90] + r[90] <= 0
 mccormick2[91]: - x[91] + r[91] <= 0
 mccormick2[92]: - x[92] + r[92] <= 0
 mccormick2[93]: - x[93] + r[93] <= 0
 mccormick2[94]: - x[94] + r[94] <= 0
 mccormick2[95]: - x[95] + r[95] <= 0
 mccormick2[96]: - x[96] + r[96] <= 0
 mccormick2[97]: - x[97] + r[97] <= 0
 mccormick2[98]: - x[98] + r[98] <= 0
 mccormick2[99]: - x[99] + r[99] <= 0
 mccormick2[100]: - x[100] + r[100] <= 0
 mccormick2[101]: - x[101] + r[101] <= 0
 mccormick2[102]: - x[102] + r[102] <= 0
 mccormick2[103]: - x[103] + r[103] <= 0
 mccormick2[104]: - x[104] + r[104] <= 0
 mccormick2[105]: - x[105] + r[105] <= 0
 mccormick2[106]: - x[106] + r[106] <= 0
 mccormick2[107]: - x[107] + r[107] <= 0
 mccormick2[108]: - x[108] + r[108] <= 0
 mccormick2[109]: - x[109] + r[109] <= 0
 mccormick2[110]: - x[110] + r[110] <= 0
 mccormick2[111]: - x[111] + r[111] <= 0
 mccormick2[112]: - x[112] + r[112] <= 0
 mccormick2[113]: - x[113] + r[113] <= 0
 mccormick2[114]: - x[114] + r[114] <= 0
 mccormick2[115]: - x[115] + r[115] <= 0
 mccormick2[116]: - x[116] + r[116] <= 0
 mccormick2[117]: - x[117] + r[117] <= 0
 mccormick2[118]: - x[118] + r[118] <= 0
 mccormick2[119]: - x[119] + r[119] <= 0
 mccormick2[120]: - x[120] + r[120] <= 0
 mccormick2[121]: - x[121] + r[121] <= 0
 mccormick2[122]: - x[122] + r[122] <= 0
 mccormick2[123]: - x[123] + r[123] <= 0
 mccormick2[124]: - x[124] + r[124] <= 0
 mccormick2[125]: - x[125] + r[125] <= 0
 mccormick2[126]: - x[126] + r[126] <= 0
 mccormick2[127]: - x[127] + r[127] <= 0
 mccormick2[128]: - x[128] + r[128] <= 0
 mccormick2[129]: - x[129] + r[129] <= 0
 mccormick2[130]: - x[130] + r[130] <= 0
 mccormick2[131]: - x[131] + r[131] <= 0
 mccormick2[132]: - x[132] + r[132] <= 0
 mccormick2[133]: - x[133] + r[133] <= 0
 mccormick2[134]: - x[134] + r[134] <= 0
 mccormick2[135]: - x[135] + r[135] <= 0
 mccormick2[136]: - x[136] + r[136] <= 0
 mccormick2[137]: - x[137] + r[137] <= 0
 mccormick2[138]: - x[138] + r[138] <= 0
 mccormick2[139]: - x[139] + r[139] <= 0
 mccormick2[140]: - x[140] + r[140] <= 0
 mccormick2[141]: - x[141] + r[141] <= 0
 mccormick2[142]: - x[142] + r[142] <= 0
 mccormick2[143]: - x[143] + r[143] <= 0
 mccormick2[144]: - x[144] + r[144] <= 0
 mccormick2[145]: - x[145] + r[145] <= 0
 mccormick2[146]: - x[146] + r[146] <= 0
 mccormick2[147]: - x[147] + r[147] <= 0
 mccormick2[148]: - x[148] + r[148] <= 0
 mccormick2[149]: - x[149] + r[149] <= 0
 mccormick3[0]: x[0] + u[0] - r[0] <= 1
 mccormick3[1]: x[1] + u[1] - r[1] <= 1
 mccormick3[2]: x[2] + u[2] - r[2] <= 1
 mccormick3[3]: x[3] + u[3] - r[3] <= 1
 mccormick3[4]: x[4] + u[4] - r[4] <= 1
 mccormick3[5]: x[5] + u[5] - r[5] <= 1
 mccormick3[6]: x[6] + u[6] - r[6] <= 1
 mccormick3[7]: x[7] + u[7] - r[7] <= 1
 mccormick3[8]: x[8] + u[8] - r[8] <= 1
 mccormick3[9]: x[9] + u[9] - r[9] <= 1
 mccormick3[10]: x[10] + u[10] - r[10] <= 1
 mccormick3[11]: x[11] + u[11] - r[11] <= 1
 mccormick3[12]: x[12] + u[12] - r[12] <= 1
 mccormick3[13]: x[13] + u[13] - r[13] <= 1
 mccormick3[14]: x[14] + u[14] - r[14] <= 1
 mccormick3[15]: x[15] + u[15] - r[15] <= 1
 mccormick3[16]: x[16] + u[16] - r[16] <= 1
 mccormick3[17]: x[17] + u[17] - r[17] <= 1
 mccormick3[18]: x[18] + u[18] - r[18] <= 1
 mccormick3[19]: x[19] + u[19] - r[19] <= 1
 mccormick3[20]: x[20] + u[20] - r[20] <= 1
 mccormick3[21]: x[21] + u[21] - r[21] <= 1
 mccormick3[22]: x[22] + u[22] - r[22] <= 1
 mccormick3[23]: x[23] + u[23] - r[23] <= 1
 mccormick3[24]: x[24] + u[24] - r[24] <= 1
 mccormick3[25]: x[25] + u[25] - r[25] <= 1
 mccormick3[26]: x[26] + u[26] - r[26] <= 1
 mccormick3[27]: x[27] + u[27] - r[27] <= 1
 mccormick3[28]: x[28] + u[28] - r[28] <= 1
 mccormick3[29]: x[29] + u[29] - r[29] <= 1
 mccormick3[30]: x[30] + u[30] - r[30] <= 1
 mccormick3[31]: x[31] + u[31] - r[31] <= 1
 mccormick3[32]: x[32] + u[32] - r[32] <= 1
 mccormick3[33]: x[33] + u[33] - r[33] <= 1
 mccormick3[34]: x[34] + u[34] - r[34] <= 1
 mccormick3[35]: x[35] + u[35] - r[35] <= 1
 mccormick3[36]: x[36] + u[36] - r[36] <= 1
 mccormick3[37]: x[37] + u[37] - r[37] <= 1
 mccormick3[38]: x[38] + u[38] - r[38] <= 1
 mccormick3[39]: x[39] + u[39] - r[39] <= 1
 mccormick3[40]: x[40] + u[40] - r[40] <= 1
 mccormick3[41]: x[41] + u[41] - r[41] <= 1
 mccormick3[42]: x[42] + u[42] - r[42] <= 1
 mccormick3[43]: x[43] + u[43] - r[43] <= 1
 mccormick3[44]: x[44] + u[44] - r[44] <= 1
 mccormick3[45]: x[45] + u[45] - r[45] <= 1
 mccormick3[46]: x[46] + u[46] - r[46] <= 1
 mccormick3[47]: x[47] + u[47] - r[47] <= 1
 mccormick3[48]: x[48] + u[48] - r[48] <= 1
 mccormick3[49]: x[49] + u[49] - r[49] <= 1
 mccormick3[50]: x[50] + u[50] - r[50] <= 1
 mccormick3[51]: x[51] + u[51] - r[51] <= 1
 mccormick3[52]: x[52] + u[52] - r[52] <= 1
 mccormick3[53]: x[53] + u[53] - r[53] <= 1
 mccormick3[54]: x[54] + u[54] - r[54] <= 1
 mccormick3[55]: x[55] + u[55] - r[55] <= 1
 mccormick3[56]: x[56] + u[56] - r[56] <= 1
 mccormick3[57]: x[57] + u[57] - r[57] <= 1
 mccormick3[58]: x[58] + u[58] - r[58] <= 1
 mccormick3[59]: x[59] + u[59] - r[59] <= 1
 mccormick3[60]: x[60] + u[60] - r[60] <= 1
 mccormick3[61]: x[61] + u[61] - r[61] <= 1
 mccormick3[62]: x[62] + u[62] - r[62] <= 1
 mccormick3[63]: x[63] + u[63] - r[63] <= 1
 mccormick3[64]: x[64] + u[64] - r[64] <= 1
 mccormick3[65]: x[65] + u[65] - r[65] <= 1
 mccormick3[66]: x[66] + u[66] - r[66] <= 1
 mccormick3[67]: x[67] + u[67] - r[67] <= 1
 mccormick3[68]: x[68] + u[68] - r[68] <= 1
 mccormick3[69]: x[69] + u[69] - r[69] <= 1
 mccormick3[70]: x[70] + u[70] - r[70] <= 1
 mccormick3[71]: x[71] + u[71] - r[71] <= 1
 mccormick3[72]: x[72] + u[72] - r[72] <= 1
 mccormick3[73]: x[73] + u[73] - r[73] <= 1
 mccormick3[74]: x[74] + u[74] - r[74] <= 1
 mccormick3[75]: x[75] + u[75] - r[75] <= 1
 mccormick3[76]: x[76] + u[76] - r[76] <= 1
 mccormick3[77]: x[77] + u[77] - r[77] <= 1
 mccormick3[78]: x[78] + u[78] - r[78] <= 1
 mccormick3[79]: x[79] + u[79] - r[79] <= 1
 mccormick3[80]: x[80] + u[80] - r[80] <= 1
 mccormick3[81]: x[81] + u[81] - r[81] <= 1
 mccormick3[82]: x[82] + u[82] - r[82] <= 1
 mccormick3[83]: x[83] + u[83] - r[83] <= 1
 mccormick3[84]: x[84] + u[84] - r[84] <= 1
 mccormick3[85]: x[85] + u[85] - r[85] <= 1
 mccormick3[86]: x[86] + u[86] - r[86] <= 1
 mccormick3[87]: x[87] + u[87] - r[87] <= 1
 mccormick3[88]: x[88] + u[88] - r[88] <= 1
 mccormick3[89]: x[89] + u[89] - r[89] <= 1
 mccormick3[90]: x[90] + u[90] - r[90] <= 1
 mccormick3[91]: x[91] + u[91] - r[91] <= 1
 mccormick3[92]: x[92] + u[92] - r[92] <= 1
 mccormick3[93]: x[93] + u[93] - r[93] <= 1
 mccormick3[94]: x[94] + u[94] - r[94] <= 1
 mccormick3[95]: x[95] + u[95] - r[95] <= 1
 mccormick3[96]: x[96] + u[96] - r[96] <= 1
 mccormick3[97]: x[97] + u[97] - r[97] <= 1
 mccormick3[98]: x[98] + u[98] - r[98] <= 1
 mccormick3[99]: x[99] + u[99] - r[99] <= 1
 mccormick3[100]: x[100] + u[100] - r[100] <= 1
 mccormick3[101]: x[101] + u[101] - r[101] <= 1
 mccormick3[102]: x[102] + u[102] - r[102] <= 1
 mccormick3[103]: x[103] + u[103] - r[103] <= 1
 mccormick3[104]: x[104] + u[104] - r[104] <= 1
 mccormick3[105]: x[105] + u[105] - r[105] <= 1
 mccormick3[106]: x[106] + u[106] - r[106] <= 1
 mccormick3[107]: x[107] + u[107] - r[107] <= 1
 mccormick3[108]: x[108] + u[108] - r[108] <= 1
 mccormick3[109]: x[109] + u[109] - r[109] <= 1
 mccormick3[110]: x[110] + u[110] - r[110] <= 1
 mccormick3[111]: x[111] + u[111] - r[111] <= 1
 mccormick3[112]: x[112] + u[112] - r[112] <= 1
 mccormick3[113]: x[113] + u[113] - r[113] <= 1
 mccormick3[114]: x[114] + u[114] - r[114] <= 1
 mccormick3[115]: x[115] + u[115] - r[115] <= 1
 mccormick3[116]: x[116] + u[116] - r[116] <= 1
 mccormick3[117]: x[117] + u[117] - r[117] <= 1
 mccormick3[118]: x[118] + u[118] - r[118] <= 1
 mccormick3[119]: x[119] + u[119] - r[119] <= 1
 mccormick3[120]: x[120] + u[120] - r[120] <= 1
 mccormick3[121]: x[121] + u[121] - r[121] <= 1
 mccormick3[122]: x[122] + u[122] - r[122] <= 1
 mccormick3[123]: x[123] + u[123] - r[123] <= 1
 mccormick3[124]: x[124] + u[124] - r[124] <= 1
 mccormick3[125]: x[125] + u[125] - r[125] <= 1
 mccormick3[126]: x[126] + u[126] - r[126] <= 1
 mccormick3[127]: x[127] + u[127] - r[127] <= 1
 mccormick3[128]: x[128] + u[128] - r[128] <= 1
 mccormick3[129]: x[129] + u[129] - r[129] <= 1
 mccormick3[130]: x[130] + u[130] - r[130] <= 1
 mccormick3[131]: x[131] + u[131] - r[131] <= 1
 mccormick3[132]: x[132] + u[132] - r[132] <= 1
 mccormick3[133]: x[133] + u[133] - r[133] <= 1
 mccormick3[134]: x[134] + u[134] - r[134] <= 1
 mccormick3[135]: x[135] + u[135] - r[135] <= 1
 mccormick3[136]: x[136] + u[136] - r[136] <= 1
 mccormick3[137]: x[137] + u[137] - r[137] <= 1
 mccormick3[138]: x[138] + u[138] - r[138] <= 1
 mccormick3[139]: x[139] + u[139] - r[139] <= 1
 mccormick3[140]: x[140] + u[140] - r[140] <= 1
 mccormick3[141]: x[141] + u[141] - r[141] <= 1
 mccormick3[142]: x[142] + u[142] - r[142] <= 1
 mccormick3[143]: x[143] + u[143] - r[143] <= 1
 mccormick3[144]: x[144] + u[144] - r[144] <= 1
 mccormick3[145]: x[145] + u[145] - r[145] <= 1
 mccormick3[146]: x[146] + u[146] - r[146] <= 1
 mccormick3[147]: x[147] + u[147] - r[147] <= 1
 mccormick3[148]: x[148] + u[148] - r[148] <= 1
 mccormick3[149]: x[149] + u[149] - r[149] <= 1
Bounds
Binaries
 x[0] x[1] x[2] x[3] x[4] x[5] x[6] x[7] x[8] x[9] x[10] x[11] x[12] x[13]
 x[14] x[15] x[16] x[17] x[18] x[19] x[20] x[21] x[22] x[23] x[24] x[25]
 x[26] x[27] x[28] x[29] x[30] x[31] x[32] x[33] x[34] x[35] x[36] x[37]
 x[38] x[39] x[40] x[41] x[42] x[43] x[44] x[45] x[46] x[47] x[48] x[49]
 x[50] x[51] x[52] x[53] x[54] x[55] x[56] x[57] x[58] x[59] x[60] x[61]
 x[62] x[63] x[64] x[65] x[66] x[67] x[68] x[69] x[70] x[71] x[72] x[73]
 x[74] x[75] x[76] x[77] x[78] x[79] x[80] x[81] x[82] x[83] x[84] x[85]
 x[86] x[87] x[88] x[89] x[90] x[91] x[92] x[93] x[94] x[95] x[96] x[97]
 x[98] x[99] x[100] x[101] x[102] x[103] x[104] x[105] x[106] x[107] x[108]
 x[109] x[110] x[111] x[112] x[113] x[114] x[115] x[116] x[117] x[118]
 x[119] x[120] x[121] x[122] x[123] x[124] x[125] x[126] x[127] x[128]
 x[129] x[130] x[131] x[132] x[133] x[134] x[135] x[136] x[137] x[138]
 x[139] x[140] x[141] x[142] x[143] x[144] x[145] x[146] x[147] x[148]
 x[149] u[0] u[1] u[2] u[3] u[4] u[5] u[6] u[7] u[8] u[9] u[10] u[11] u[12]
 u[13] u[14] u[15] u[16] u[17] u[18] u[19] u[20] u[21] u[22] u[23] u[24]
 u[25] u[26] u[27] u[28] u[29] u[30] u[31] u[32] u[33] u[34] u[35] u[36]
 u[37] u[38] u[39] u[40] u[41] u[42] u[43] u[44] u[45] u[46] u[47] u[48]
 u[49] u[50] u[51] u[52] u[53] u[54] u[55] u[56] u[57] u[58] u[59] u[60]
 u[61] u[62] u[63] u[64] u[65] u[66] u[67] u[68] u[69] u[70] u[71] u[72]
 u[73] u[74] u[75] u[76] u[77] u[78] u[79] u[80] u[81] u[82] u[83] u[84]
 u[85] u[86] u[87] u[88] u[89] u[90] u[91] u[92] u[93] u[94] u[95] u[96]
 u[97] u[98] u[99] u[100] u[101] u[102] u[103] u[104] u[105] u[106] u[107]
 u[108] u[109] u[110] u[111] u[112] u[113] u[114] u[115] u[116] u[117]
 u[118] u[119] u[120] u[121] u[122] u[123] u[124] u[125] u[126] u[127]
 u[128] u[129] u[130] u[131] u[132] u[133] u[134] u[135] u[136] u[137]
 u[138] u[139] u[140] u[141] u[142] u[143] u[144] u[145] u[146] u[147]
 u[148] u[149] r[0] r[1] r[2] r[3] r[4] r[5] r[6] r[7] r[8] r[9] r[10]
 r[11] r[12] r[13] r[14] r[15] r[16] r[17] r[18] r[19] r[20] r[21] r[22]
 r[23] r[24] r[25] r[26] r[27] r[28] r[29] r[30] r[31] r[32] r[33] r[34]
 r[35] r[36] r[37] r[38] r[39] r[40] r[41] r[42] r[43] r[44] r[45] r[46]
 r[47] r[48] r[49] r[50] r[51] r[52] r[53] r[54] r[55] r[56] r[57] r[58]
 r[59] r[60] r[61] r[62] r[63] r[64] r[65] r[66] r[67] r[68] r[69] r[70]
 r[71] r[72] r[73] r[74] r[75] r[76] r[77] r[78] r[79] r[80] r[81] r[82]
 r[83] r[84] r[85] r[86] r[87] r[88] r[89] r[90] r[91] r[92] r[93] r[94]
 r[95] r[96] r[97] r[98] r[99] r[100] r[101] r[102] r[103] r[104] r[105]
 r[106] r[107] r[108] r[109] r[110] r[111] r[112] r[113] r[114] r[115]
 r[116] r[117] r[118] r[119] r[120] r[121] r[122] r[123] r[124] r[125]
 r[126] r[127] r[128] r[129] r[130] r[131] r[132] r[133] r[134] r[135]
 r[136] r[137] r[138] r[139] r[140] r[141] r[142] r[143] r[144] r[145]
 r[146] r[147] r[148] r[149]
End
