instances/knapsack/discrete/knapsack_150_14.kp
3066
150
715

84 8.4 42
92 9.2 91
54 5.4 56
7 0.7 84
32 3.2 54
14 1.4 73
73 7.3 82
80 8.0 48
37 3.7 91
94 9.4 75
72 7.2 83
11 1.1 67
12 1.2 7
16 1.6 82
41 4.1 43
93 9.3 60
73 7.3 82
44 4.4 86
49 4.9 43
62 6.2 78
57 5.7 46
68 6.8 71
100 10.0 92
39 3.9 100
41 4.1 41
92 9.2 67
90 9.0 56
16 1.6 96
82 8.2 66
55 5.5 13
62 6.2 81
36 3.6 72
4 0.4 16
45 4.5 83
92 9.2 32
17 1.7 33
76 7.6 37
5 0.5 75
60 6.0 51
35 3.5 68
11 1.1 40
30 3.0 10
38 3.8 46
94 9.4 39
23 2.3 27
7 0.7 63
46 4.6 73
58 5.8 65
15 1.5 77
68 6.8 38
19 1.9 55
76 7.6 7
49 4.9 23
16 1.6 69
61 6.1 100
32 3.2 90
5 0.5 59
31 3.1 96
28 2.8 20
94 9.4 7
37 3.7 32
7 0.7 90
36 3.6 30
51 5.1 74
60 6.0 35
92 9.2 1
21 2.1 81
91 9.1 18
92 9.2 5
10 1.0 14
22 2.2 21
70 7.0 99
14 1.4 57
43 4.3 22
8 0.8 63
9 0.9 2
95 9.5 94
19 1.9 97
17 1.7 88
23 2.3 72
50 5.0 23
70 7.0 98
35 3.5 62
38 3.8 14
66 6.6 25
34 3.4 93
88 8.8 78
56 5.6 75
86 8.6 24
43 4.3 83
37 3.7 66
89 8.9 38
33 3.3 94
60 6.0 25
60 6.0 28
9 0.9 63
89 8.9 49
81 8.1 44
92 9.2 93
64 6.4 13
45 4.5 13
36 3.6 10
42 4.2 91
96 9.6 2
65 6.5 35
38 3.8 35
51 5.1 46
31 3.1 41
47 4.7 54
9 0.9 97
91 9.1 58
99 9.9 10
29 2.9 14
69 6.9 16
17 1.7 14
31 3.1 25
19 1.9 19
49 4.9 9
41 4.1 82
89 8.9 39
60 6.0 58
25 2.5 95
72 7.2 78
71 7.1 59
65 6.5 40
79 7.9 29
16 1.6 61
88 8.8 38
15 1.5 80
27 2.7 49
10 1.0 35
77 7.7 91
15 1.5 40
24 2.4 55
1 0.1 14
62 6.2 32
1 0.1 77
99 9.9 54
22 2.2 83
52 5.2 34
95 9.5 98
89 8.9 49
55 5.5 10
31 3.1 72
85 8.5 12
58 5.8 3
82 8.2 93
51 5.1 95
93 9.3 81
90 9.0 95

58167
731

[0.43844626234738476 4.76310495508368 0.9423226323970211 1.0484864518313657 1.0962862741290036 2.903562021400137 1.0451947423326122 0.2624425241583803 0.3623262075794386 4.504570907900985 4.101152949427287 3.5524231888859514 4.850601705283467 2.0516248519631755 1.4748837606273526 2.9335007952629413 0.6101675274542162 1.1914278221604295 4.859441835505407 3.3662726847215128 4.563096548124562 4.529327507344934 3.7977387654887864 0.2956848985560399 1.416571444992707 1.0427806821536736 0.5327137504222261 0.7600817576038307 3.491280418983792 2.8967624023647116 3.0220828493611087 2.7230854398969866 2.9886955210342054 1.6957344998684896 0.8031701536307672 0.8712825476394441 2.585841020414824 1.2481790470578673 2.670901787038708 1.1551676057556057 3.360765260787759 1.6962734335859126 3.2493229913133637 4.173266608054459 1.9966448881225303 1.5457488099042007 2.514796747167728 3.9249387341830557 0.7755851910311867 0.45474469702287984 2.2562511639234226 3.57279390841288 4.819588852949943 2.4243778504230415 4.34807655842772 2.867107294742759 3.400744935354384 1.2353609057828663 3.506963912885741 1.5407764988782875 2.5752102253212605 3.1985703087219264 0.6506035320767425 4.085749599918475 0.3255495828139212 1.9031303277544458 3.481548547464968 4.414477924940156 0.13523276629161313 3.013210255429349 1.2434519054371658 4.165058769508853 1.4398867358394394 3.1556146568506667 3.953595195563404 4.266926756148684 3.2802173975941864 1.2797511586555 2.6444959471494642 4.610325689088019 0.8248921221922615 2.7535448724778324 4.789599949323765 0.36376271952424977 3.358196620395855 0.6801845894556204 3.44140081092597 1.8016074845447365 1.9673936996893828 2.4193194233431226 4.338198711111391 0.49935672042091633 4.191483339740269 4.081120780533336 1.2412812534786013 3.896970125787708 3.1211321336200095 2.9793354695718888 3.8849701808805697 0.43750289089531924 2.7344577786684217 3.552503596011226 0.9350231395053946 3.209299319218623 4.064025620781011 2.254031544366829 2.241404124570646 4.848021229621657 4.097154615791552 0.14741921179972656 2.6315034749176274 3.257805862518434 0.11956834632875886 0.026348822109768882 3.9726346423696555 0.9588665089715739 3.7894981989143512 1.3425075175957981 1.359022973147184 3.9872146804018977 3.89805622287619 3.1492438338090074 2.7630078649149934 2.3522119706231246 0.8901492890322683 0.029570355020836412 0.9560209912639903 0.8419139940741497 2.43429002806666 2.5353525644293073 4.1374482931708805 4.428095168720361 1.8873641741855485 1.015798398849919 3.6020310168368557 0.2531932027307331 0.14613183347429629 4.654953319122903 1.8441027974566468 2.245881367551347 1.7487797769511415 4.832284808573917 1.5766647410287804 1.6675298400124932 1.948486327401222 0.407020853908637 4.2799376764206265 2.653483429529649 2.5738428026452915 3.747497722380752]

[52 37 59 36 61 78 90 100 50 19 76 4 21 9 25 97 78 49 98 87 18 56 49 63 77 97 99 88 82 52 46 24 20 74 21 98 53 61 61 83 28 38 3 2 92 39 98 34 60 1 91 9 74 1 97 12 66 59 13 11 25 39 8 95 72 41 97 51 81 58 38 66 51 40 40 25 7 96 57 15 58 26 11 82 14 50 20 9 35 92 57 65 77 4 89 54 90 45 57 13 70 53 27 41 66 3 64 31 63 70 67 100 58 30 6 87 100 26 94 13 48 61 68 3 74 59 60 100 27 20 34 38 71 1 97 83 30 71 26 1 60 5 84 20 10 55 63 76 53 87]
